% seed = 6215237

mint = 47;
% maxt = 187;

nActs = 42;
dur = [0,10,5,2,9,7,4,1,10,3,6,8,6,8,1,6,3,7,3,2,2,2,6,7,8,3,8,1,1,1,2,4,1,7,2,3,1,2,5,10,10,0];

nSkills = 4;
sreq = [| 0,0,0,0,
	| 0,4,4,4,
	| 7,0,0,6,
	| 3,3,5,6,
	| 0,6,0,5,
	| 3,7,0,0,
	| 7,3,0,3,
	| 7,1,5,0,
	| 0,7,0,4,
	| 5,6,5,2,
	| 0,6,7,7,
	| 5,4,1,3,
	| 3,4,5,5,
	| 0,6,5,0,
	| 4,3,0,0,
	| 0,3,0,1,
	| 1,2,2,2,
	| 0,4,1,3,
	| 0,6,0,3,
	| 3,4,3,4,
	| 3,2,3,4,
	| 4,4,0,3,
	| 2,4,3,5,
	| 5,0,6,0,
	| 3,4,7,3,
	| 6,0,0,7,
	| 0,0,5,5,
	| 2,5,0,0,
	| 6,0,0,4,
	| 4,1,2,0,
	| 3,4,3,3,
	| 7,0,0,5,
	| 3,2,2,2,
	| 3,6,1,2,
	| 5,6,3,0,
	| 3,2,5,2,
	| 7,0,7,0,
	| 5,0,6,0,
	| 0,7,0,5,
	| 3,5,3,7,
	| 6,0,0,7,
	| 0,0,0,0, |];

nResources = 38;
mastery = [| true,true,false,false,
	| true,false,false,false,
	| true,false,false,false,
	| false,true,false,false,
	| false,true,false,false,
	| false,true,false,false,
	| true,false,true,true,
	| true,false,false,false,
	| true,false,true,true,
	| true,false,false,true,
	| false,true,true,false,
	| true,false,false,false,
	| true,true,false,true,
	| false,true,false,false,
	| true,true,false,true,
	| true,false,false,true,
	| true,false,false,true,
	| false,false,true,true,
	| true,true,false,false,
	| true,true,false,true,
	| true,false,false,true,
	| false,false,false,true,
	| true,false,false,false,
	| true,true,false,true,
	| false,false,true,true,
	| false,true,true,false,
	| true,false,true,true,
	| true,true,true,false,
	| false,false,false,true,
	| true,false,true,false,
	| false,true,false,false,
	| true,true,false,true,
	| true,false,false,true,
	| true,true,false,false,
	| false,false,false,true,
	| true,true,false,true,
	| true,false,true,false,
	| false,false,true,false, |];

nPrecs = 73;
pred = [1,1,1,2,2,2,3,3,3,4,4,4,5,6,6,6,7,7,8,9,10,10,11,11,11,12,13,13,14,14,14,15,15,16,16,16,17,17,17,18,19,19,20,20,21,22,23,24,25,25,26,26,27,28,28,28,29,30,30,31,32,33,33,34,35,35,36,36,37,38,39,40,41];
succ = [2,3,4,17,20,21,9,33,5,10,6,7,22,23,15,8,11,30,25,16,12,14,18,13,31,40,19,22,28,15,16,19,35,37,27,29,19,28,27,21,34,29,33,26,36,24,37,32,28,32,35,30,39,41,34,29,39,31,32,36,36,41,38,40,38,39,41,37,38,40,42,42,42];

nUnrels = 475;
unpred = [2,2,2,2,2,2,2,2,2,2,2,2,2,2,2,2,2,2,2,3,3,3,3,3,3,3,3,3,3,3,3,3,3,3,3,3,3,3,3,3,3,3,4,4,4,4,4,4,5,5,5,5,5,5,5,5,5,5,5,5,5,5,5,5,5,5,5,5,5,5,5,5,5,5,5,5,6,6,6,6,6,6,6,6,6,6,6,6,6,6,6,6,6,6,6,7,7,7,7,7,7,7,7,7,7,7,7,7,7,7,7,8,8,8,8,8,8,8,8,8,8,8,8,8,8,8,8,8,8,8,8,8,8,9,9,9,9,9,9,9,9,9,9,9,9,9,9,9,9,9,9,9,9,9,9,9,9,9,10,10,10,10,10,10,10,10,10,10,10,10,10,10,10,10,11,11,11,11,11,11,11,11,11,11,11,11,11,11,12,12,12,12,12,12,12,12,12,12,12,12,12,12,12,12,12,12,12,12,12,12,12,12,12,12,12,12,13,13,13,13,13,13,13,13,13,13,13,13,13,13,13,13,14,14,14,14,14,14,14,14,14,14,14,14,14,14,15,15,15,15,15,15,15,15,15,15,15,15,15,15,15,15,15,15,15,16,16,16,16,16,16,16,16,16,16,16,16,16,16,16,16,16,16,16,17,17,17,17,17,17,17,17,17,17,17,17,17,17,17,17,18,18,18,18,18,18,18,18,18,18,18,18,18,18,18,18,18,19,19,19,19,19,19,19,19,19,19,19,19,19,19,19,19,19,19,20,20,20,20,20,20,20,20,20,21,21,21,21,21,21,21,21,21,21,21,21,21,21,21,22,22,22,22,22,22,22,22,22,22,22,22,23,23,23,23,23,23,23,23,23,23,23,23,23,23,23,24,24,24,24,24,24,24,24,24,24,24,25,25,25,25,25,25,26,26,26,26,26,27,27,27,27,27,27,27,27,27,27,27,27,27,28,28,28,28,28,28,28,28,29,29,29,29,29,29,29,29,29,29,29,30,30,30,30,31,31,31,31,31,32,32,32,32,33,33,33,33,33,34,34,34,34,34,34,35,35,35,36,37,37,38,38,39,39,40];
unsucc = [3,4,5,6,7,8,9,10,11,12,13,14,15,16,18,22,23,24,25,4,6,7,8,10,11,12,13,14,15,17,18,19,20,21,23,25,26,28,30,31,34,35,5,9,17,20,26,33,6,7,8,9,10,11,12,13,14,15,16,17,18,19,20,21,23,25,26,27,28,29,30,31,33,34,35,39,7,9,10,11,12,13,14,16,17,18,20,21,22,24,26,27,30,31,33,8,9,10,12,14,15,16,17,20,23,25,26,27,28,33,35,9,10,11,12,13,14,15,16,17,18,19,20,21,22,23,24,26,27,30,31,33,35,10,11,12,13,14,15,17,18,19,20,21,22,23,24,25,26,28,30,31,32,33,34,35,36,41,11,13,17,18,20,21,22,23,24,25,26,30,31,32,33,36,12,14,15,16,17,20,23,25,26,27,28,30,33,35,13,14,15,16,17,18,19,20,21,22,23,24,25,26,27,28,29,30,31,32,33,34,35,36,37,38,39,41,14,15,16,17,18,20,21,23,25,26,27,28,30,31,33,35,17,18,20,21,22,23,24,25,26,30,31,32,33,36,16,17,18,20,21,22,23,24,25,26,27,28,30,31,32,33,36,37,41,17,18,19,20,21,22,23,24,25,26,28,30,31,32,33,34,35,36,41,18,20,21,22,23,24,25,26,30,31,32,33,35,36,37,38,19,20,22,23,24,25,26,27,28,29,30,31,32,33,34,35,39,20,21,22,23,24,25,26,27,28,30,31,32,33,35,36,37,38,41,21,22,23,24,25,27,28,29,34,22,23,24,25,26,27,28,29,30,31,32,33,34,35,39,23,25,26,27,28,29,30,31,33,34,35,39,24,25,26,27,28,29,30,31,32,33,34,35,36,39,41,25,26,27,28,29,30,31,33,34,35,39,26,27,30,31,33,35,27,28,29,33,34,28,29,30,31,32,33,34,35,36,37,38,40,41,30,31,32,33,35,36,37,38,30,31,32,33,34,35,36,37,38,40,41,33,34,35,39,32,33,34,35,39,33,34,35,39,34,35,36,37,39,35,36,37,38,39,41,36,37,41,39,39,41,39,41,40,41,41];

USEFUL_RES = [{},
	{1,4,5,6,7,9,10,11,13,14,15,16,17,18,19,20,21,22,24,25,26,27,28,29,30,31,32,33,34,35,36,37,38},
	{1,2,3,7,8,9,10,12,13,15,16,17,18,19,20,21,22,23,24,25,27,28,29,30,32,33,34,35,36,37},
	{1,2,3,4,5,6,7,8,9,10,11,12,13,14,15,16,17,18,19,20,21,22,23,24,25,26,27,28,29,30,31,32,33,34,35,36,37,38},
	{1,4,5,6,7,9,10,11,13,14,15,16,17,18,19,20,21,22,24,25,26,27,28,29,31,32,33,34,35,36},
	{1,2,3,4,5,6,7,8,9,10,11,12,13,14,15,16,17,19,20,21,23,24,26,27,28,30,31,32,33,34,36,37},
	{1,2,3,4,5,6,7,8,9,10,11,12,13,14,15,16,17,18,19,20,21,22,23,24,25,26,27,28,29,30,31,32,33,34,35,36,37},
	{1,2,3,4,5,6,7,8,9,10,11,12,13,14,15,16,17,18,19,20,21,23,24,25,26,27,28,30,31,32,33,34,36,37,38},
	{1,4,5,6,7,9,10,11,13,14,15,16,17,18,19,20,21,22,24,25,26,27,28,29,31,32,33,34,35,36},
	{1,2,3,4,5,6,7,8,9,10,11,12,13,14,15,16,17,18,19,20,21,22,23,24,25,26,27,28,29,30,31,32,33,34,35,36,37,38},
	{1,4,5,6,7,9,10,11,13,14,15,16,17,18,19,20,21,22,24,25,26,27,28,29,30,31,32,33,34,35,36,37,38},
	{1,2,3,4,5,6,7,8,9,10,11,12,13,14,15,16,17,18,19,20,21,22,23,24,25,26,27,28,29,30,31,32,33,34,35,36,37,38},
	{1,2,3,4,5,6,7,8,9,10,11,12,13,14,15,16,17,18,19,20,21,22,23,24,25,26,27,28,29,30,31,32,33,34,35,36,37,38},
	{1,4,5,6,7,9,11,13,14,15,18,19,20,24,25,26,27,28,30,31,32,34,36,37,38},
	{1,2,3,4,5,6,7,8,9,10,11,12,13,14,15,16,17,19,20,21,23,24,26,27,28,30,31,32,33,34,36,37},
	{1,4,5,6,7,9,10,11,13,14,15,16,17,18,19,20,21,22,24,25,26,27,28,29,31,32,33,34,35,36},
	{1,2,3,4,5,6,7,8,9,10,11,12,13,14,15,16,17,18,19,20,21,22,23,24,25,26,27,28,29,30,31,32,33,34,35,36,37,38},
	{1,4,5,6,7,9,10,11,13,14,15,16,17,18,19,20,21,22,24,25,26,27,28,29,30,31,32,33,34,35,36,37,38},
	{1,4,5,6,7,9,10,11,13,14,15,16,17,18,19,20,21,22,24,25,26,27,28,29,31,32,33,34,35,36},
	{1,2,3,4,5,6,7,8,9,10,11,12,13,14,15,16,17,18,19,20,21,22,23,24,25,26,27,28,29,30,31,32,33,34,35,36,37,38},
	{1,2,3,4,5,6,7,8,9,10,11,12,13,14,15,16,17,18,19,20,21,22,23,24,25,26,27,28,29,30,31,32,33,34,35,36,37,38},
	{1,2,3,4,5,6,7,8,9,10,11,12,13,14,15,16,17,18,19,20,21,22,23,24,25,26,27,28,29,30,31,32,33,34,35,36,37},
	{1,2,3,4,5,6,7,8,9,10,11,12,13,14,15,16,17,18,19,20,21,22,23,24,25,26,27,28,29,30,31,32,33,34,35,36,37,38},
	{1,2,3,7,8,9,10,11,12,13,15,16,17,18,19,20,21,23,24,25,26,27,28,30,32,33,34,36,37,38},
	{1,2,3,4,5,6,7,8,9,10,11,12,13,14,15,16,17,18,19,20,21,22,23,24,25,26,27,28,29,30,31,32,33,34,35,36,37,38},
	{1,2,3,7,8,9,10,12,13,15,16,17,18,19,20,21,22,23,24,25,27,28,29,30,32,33,34,35,36,37},
	{7,9,10,11,13,15,16,17,18,20,21,22,24,25,26,27,28,29,30,32,33,35,36,37,38},
	{1,2,3,4,5,6,7,8,9,10,11,12,13,14,15,16,17,19,20,21,23,24,26,27,28,30,31,32,33,34,36,37},
	{1,2,3,7,8,9,10,12,13,15,16,17,18,19,20,21,22,23,24,25,27,28,29,30,32,33,34,35,36,37},
	{1,2,3,4,5,6,7,8,9,10,11,12,13,14,15,16,17,18,19,20,21,23,24,25,26,27,28,30,31,32,33,34,36,37,38},
	{1,2,3,4,5,6,7,8,9,10,11,12,13,14,15,16,17,18,19,20,21,22,23,24,25,26,27,28,29,30,31,32,33,34,35,36,37,38},
	{1,2,3,7,8,9,10,12,13,15,16,17,18,19,20,21,22,23,24,25,27,28,29,30,32,33,34,35,36,37},
	{1,2,3,4,5,6,7,8,9,10,11,12,13,14,15,16,17,18,19,20,21,22,23,24,25,26,27,28,29,30,31,32,33,34,35,36,37,38},
	{1,2,3,4,5,6,7,8,9,10,11,12,13,14,15,16,17,18,19,20,21,22,23,24,25,26,27,28,29,30,31,32,33,34,35,36,37,38},
	{1,2,3,4,5,6,7,8,9,10,11,12,13,14,15,16,17,18,19,20,21,23,24,25,26,27,28,30,31,32,33,34,36,37,38},
	{1,2,3,4,5,6,7,8,9,10,11,12,13,14,15,16,17,18,19,20,21,22,23,24,25,26,27,28,29,30,31,32,33,34,35,36,37,38},
	{1,2,3,7,8,9,10,11,12,13,15,16,17,18,19,20,21,23,24,25,26,27,28,30,32,33,34,36,37,38},
	{1,2,3,7,8,9,10,11,12,13,15,16,17,18,19,20,21,23,24,25,26,27,28,30,32,33,34,36,37,38},
	{1,4,5,6,7,9,10,11,13,14,15,16,17,18,19,20,21,22,24,25,26,27,28,29,31,32,33,34,35,36},
	{1,2,3,4,5,6,7,8,9,10,11,12,13,14,15,16,17,18,19,20,21,22,23,24,25,26,27,28,29,30,31,32,33,34,35,36,37,38},
	{1,2,3,7,8,9,10,12,13,15,16,17,18,19,20,21,22,23,24,25,27,28,29,30,32,33,34,35,36,37},
	{}];

POTENTIAL_ACT = [{2,3,4,5,6,7,8,9,10,11,12,13,14,15,16,17,18,19,20,21,22,23,24,25,26,28,29,30,31,32,33,34,35,36,37,38,39,40,41},
	{3,4,6,7,8,10,12,13,15,17,20,21,22,23,24,25,26,28,29,30,31,32,33,34,35,36,37,38,40,41},
	{3,4,6,7,8,10,12,13,15,17,20,21,22,23,24,25,26,28,29,30,31,32,33,34,35,36,37,38,40,41},
	{2,4,5,6,7,8,9,10,11,12,13,14,15,16,17,18,19,20,21,22,23,25,28,30,31,33,34,35,36,39,40},
	{2,4,5,6,7,8,9,10,11,12,13,14,15,16,17,18,19,20,21,22,23,25,28,30,31,33,34,35,36,39,40},
	{2,4,5,6,7,8,9,10,11,12,13,14,15,16,17,18,19,20,21,22,23,25,28,30,31,33,34,35,36,39,40},
	{2,3,4,5,6,7,8,9,10,11,12,13,14,15,16,17,18,19,20,21,22,23,24,25,26,27,28,29,30,31,32,33,34,35,36,37,38,39,40,41},
	{3,4,6,7,8,10,12,13,15,17,20,21,22,23,24,25,26,28,29,30,31,32,33,34,35,36,37,38,40,41},
	{2,3,4,5,6,7,8,9,10,11,12,13,14,15,16,17,18,19,20,21,22,23,24,25,26,27,28,29,30,31,32,33,34,35,36,37,38,39,40,41},
	{2,3,4,5,6,7,8,9,10,11,12,13,15,16,17,18,19,20,21,22,23,24,25,26,27,28,29,30,31,32,33,34,35,36,37,38,39,40,41},
	{2,4,5,6,7,8,9,10,11,12,13,14,15,16,17,18,19,20,21,22,23,24,25,27,28,30,31,33,34,35,36,37,38,39,40},
	{3,4,6,7,8,10,12,13,15,17,20,21,22,23,24,25,26,28,29,30,31,32,33,34,35,36,37,38,40,41},
	{2,3,4,5,6,7,8,9,10,11,12,13,14,15,16,17,18,19,20,21,22,23,24,25,26,27,28,29,30,31,32,33,34,35,36,37,38,39,40,41},
	{2,4,5,6,7,8,9,10,11,12,13,14,15,16,17,18,19,20,21,22,23,25,28,30,31,33,34,35,36,39,40},
	{2,3,4,5,6,7,8,9,10,11,12,13,14,15,16,17,18,19,20,21,22,23,24,25,26,27,28,29,30,31,32,33,34,35,36,37,38,39,40,41},
	{2,3,4,5,6,7,8,9,10,11,12,13,15,16,17,18,19,20,21,22,23,24,25,26,27,28,29,30,31,32,33,34,35,36,37,38,39,40,41},
	{2,3,4,5,6,7,8,9,10,11,12,13,15,16,17,18,19,20,21,22,23,24,25,26,27,28,29,30,31,32,33,34,35,36,37,38,39,40,41},
	{2,3,4,5,7,8,9,10,11,12,13,14,16,17,18,19,20,21,22,23,24,25,26,27,29,30,31,32,33,34,35,36,37,38,39,40,41},
	{2,3,4,5,6,7,8,9,10,11,12,13,14,15,16,17,18,19,20,21,22,23,24,25,26,28,29,30,31,32,33,34,35,36,37,38,39,40,41},
	{2,3,4,5,6,7,8,9,10,11,12,13,14,15,16,17,18,19,20,21,22,23,24,25,26,27,28,29,30,31,32,33,34,35,36,37,38,39,40,41},
	{2,3,4,5,6,7,8,9,10,11,12,13,15,16,17,18,19,20,21,22,23,24,25,26,27,28,29,30,31,32,33,34,35,36,37,38,39,40,41},
	{2,3,4,5,7,9,10,11,12,13,16,17,18,19,20,21,22,23,25,26,27,29,31,32,33,34,36,39,40,41},
	{3,4,6,7,8,10,12,13,15,17,20,21,22,23,24,25,26,28,29,30,31,32,33,34,35,36,37,38,40,41},
	{2,3,4,5,6,7,8,9,10,11,12,13,14,15,16,17,18,19,20,21,22,23,24,25,26,27,28,29,30,31,32,33,34,35,36,37,38,39,40,41},
	{2,3,4,5,7,8,9,10,11,12,13,14,16,17,18,19,20,21,22,23,24,25,26,27,29,30,31,32,33,34,35,36,37,38,39,40,41},
	{2,4,5,6,7,8,9,10,11,12,13,14,15,16,17,18,19,20,21,22,23,24,25,27,28,30,31,33,34,35,36,37,38,39,40},
	{2,3,4,5,6,7,8,9,10,11,12,13,14,15,16,17,18,19,20,21,22,23,24,25,26,27,28,29,30,31,32,33,34,35,36,37,38,39,40,41},
	{2,3,4,5,6,7,8,9,10,11,12,13,14,15,16,17,18,19,20,21,22,23,24,25,26,27,28,29,30,31,32,33,34,35,36,37,38,39,40,41},
	{2,3,4,5,7,9,10,11,12,13,16,17,18,19,20,21,22,23,25,26,27,29,31,32,33,34,36,39,40,41},
	{2,3,4,6,7,8,10,11,12,13,14,15,17,18,20,21,22,23,24,25,26,27,28,29,30,31,32,33,34,35,36,37,38,40,41},
	{2,4,5,6,7,8,9,10,11,12,13,14,15,16,17,18,19,20,21,22,23,25,28,30,31,33,34,35,36,39,40},
	{2,3,4,5,6,7,8,9,10,11,12,13,14,15,16,17,18,19,20,21,22,23,24,25,26,27,28,29,30,31,32,33,34,35,36,37,38,39,40,41},
	{2,3,4,5,6,7,8,9,10,11,12,13,15,16,17,18,19,20,21,22,23,24,25,26,27,28,29,30,31,32,33,34,35,36,37,38,39,40,41},
	{2,3,4,5,6,7,8,9,10,11,12,13,14,15,16,17,18,19,20,21,22,23,24,25,26,28,29,30,31,32,33,34,35,36,37,38,39,40,41},
	{2,3,4,5,7,9,10,11,12,13,16,17,18,19,20,21,22,23,25,26,27,29,31,32,33,34,36,39,40,41},
	{2,3,4,5,6,7,8,9,10,11,12,13,14,15,16,17,18,19,20,21,22,23,24,25,26,27,28,29,30,31,32,33,34,35,36,37,38,39,40,41},
	{2,3,4,6,7,8,10,11,12,13,14,15,17,18,20,21,22,23,24,25,26,27,28,29,30,31,32,33,34,35,36,37,38,40,41},
	{2,4,8,10,11,12,13,14,17,18,20,21,23,24,25,27,30,31,33,34,35,36,37,38,40}];
